Properties=species:S:1:pos:R:3 pbc="F F F"
1.0
       26.5874996185         0.0000000000         0.0000000000
        0.0000000000        26.5874996185         0.0000000000
        0.0000000000         0.0000000000        26.5874996185
   Pd
   79
Cartesian
7.4587499	11.3487500	13.2937498
7.4587499	13.2937498	11.3487500
7.4587499	13.2937498	15.2387496
7.4587499	15.2387496	13.2937498
11.3487500	7.4587499	13.2937498
9.4037497	11.3487500	11.3487500
11.3487500	9.4037497	11.3487500
11.3487500	11.3487500	9.4037497
9.4037497	9.4037497	13.2937498
9.4037497	11.3487500	15.2387496
11.3487500	9.4037497	15.2387496
11.3487500	11.3487500	13.2937498
11.3487500	11.3487500	17.1837495
11.3487500	13.2937498	7.4587499
9.4037497	13.2937498	9.4037497
9.4037497	15.2387496	11.3487500
11.3487500	13.2937498	11.3487500
11.3487500	15.2387496	9.4037497
9.4037497	13.2937498	13.2937498
9.4037497	15.2387496	15.2387496
11.3487500	13.2937498	15.2387496
11.3487500	15.2387496	13.2937498
9.4037497	13.2937498	17.1837495
11.3487500	13.2937498	19.1287493
11.3487500	15.2387496	17.1837495
11.3487500	17.1837495	11.3487500
9.4037497	17.1837495	13.2937498
11.3487500	17.1837495	15.2387496
11.3487500	19.1287493	13.2937498
13.2937498	7.4587499	11.3487500
13.2937498	7.4587499	15.2387496
15.2387496	7.4587499	13.2937498
13.2937498	11.3487500	7.4587499
13.2937498	9.4037497	9.4037497
13.2937498	11.3487500	11.3487500
15.2387496	9.4037497	11.3487500
15.2387496	11.3487500	9.4037497
13.2937498	9.4037497	13.2937498
13.2937498	11.3487500	15.2387496
15.2387496	9.4037497	15.2387496
15.2387496	11.3487500	13.2937498
13.2937498	9.4037497	17.1837495
13.2937498	11.3487500	19.1287493
15.2387496	11.3487500	17.1837495
13.2937498	15.2387496	7.4587499
15.2387496	13.2937498	7.4587499
13.2937498	13.2937498	9.4037497
13.2937498	15.2387496	11.3487500
15.2387496	13.2937498	11.3487500
15.2387496	15.2387496	9.4037497
13.2937498	13.2937498	13.2937498
13.2937498	15.2387496	15.2387496
15.2387496	13.2937498	15.2387496
15.2387496	15.2387496	13.2937498
13.2937498	13.2937498	17.1837495
13.2937498	15.2387496	19.1287493
15.2387496	13.2937498	19.1287493
15.2387496	15.2387496	17.1837495
13.2937498	17.1837495	9.4037497
13.2937498	19.1287493	11.3487500
15.2387496	17.1837495	11.3487500
13.2937498	17.1837495	13.2937498
13.2937498	19.1287493	15.2387496
15.2387496	17.1837495	15.2387496
15.2387496	19.1287493	13.2937498
13.2937498	17.1837495	17.1837495
17.1837495	11.3487500	11.3487500
17.1837495	9.4037497	13.2937498
17.1837495	11.3487500	15.2387496
19.1287493	11.3487500	13.2937498
17.1837495	13.2937498	9.4037497
17.1837495	15.2387496	11.3487500
19.1287493	13.2937498	11.3487500
17.1837495	13.2937498	13.2937498
17.1837495	15.2387496	15.2387496
19.1287493	13.2937498	15.2387496
19.1287493	15.2387496	13.2937498
17.1837495	13.2937498	17.1837495
17.1837495	17.1837495	13.2937498
